LAMMPS data file via write_data, version 29 Aug 2024, timestep = 4000000000, units = nano

120 atoms
14 atom types
117 bonds
4 bond types
52 angles
2 angle types

-150 150 xlo xhi
-150 150 ylo yhi
-150 150 zlo zhi

Masses

1 3534.1
2 3534.1
3 3534.1
4 3534.1
5 3534.1
6 3534.1
7 3534.1
8 3534.1
9 3534.1
10 3534.1
11 3534.1
12 3534.1
13 3534.1
14 3534.1

Bond Coeffs # harmonic

1 347.35 5.75
2 347.35 5.5
3 347.35 1.95
4 69.4692 5.5

Angle Coeffs # cosine/squared

1 138.94 180
2 555.75 180

Atoms # full

74 2 3 0 -20.58069916112347 -56.54607909433208 148.89779642134954 0 18 -12
67 2 1 -1 -12.927641546493692 -60.66103239074714 -145.1492765462833 0 18 -11
64 2 1 -1 -10.907069641270915 -65.019818026058 -148.26225317300376 0 18 -11
70 2 1 -1 -16.731540461625208 -56.555932592306554 -145.29949974531058 0 18 -11
68 2 2 0 -15.286208764848555 -60.36178119904313 149.907231320959 0 18 -12
71 2 5 0 -17.95869372444467 -58.50834472449376 149.71470383508873 0 18 -12
36 1 6 0 -22.690450031089032 -49.950845298877326 -143.20399818041915 0 18 -11
39 1 9 0 -20.244189934238957 -49.75312222817763 -140.3770777778802 0 18 -11
33 1 6 0 -23.927460008505413 -49.638756992453104 -145.56762395699056 0 18 -11
35 1 2 0 -21.58727438309923 -48.468542359490186 -143.9483774163247 0 18 -11
32 1 2 0 -23.89694906874803 -47.848559192919936 -146.23768643390764 0 18 -11
31 1 1 -1 -24.04698347019079 -42.29618455672705 -146.48786690856463 0 18 -11
30 1 8 0 -24.652153880517638 -49.704704153574234 -148.72879608391625 0 18 -11
29 1 4 0 -25.172181005376384 -47.845570494708625 -149.2122249847579 0 18 -11
27 1 7 0 -26.16645716637455 -51.10430812331289 149.5293600016438 0 18 -12
38 1 5 0 -19.115350087504662 -49.14739634448366 -141.8775949217596 0 18 -11
42 1 9 0 -18.02570950730752 -47.283113764239964 -139.37075216717696 0 18 -11
73 2 1 -1 -19.26367843570118 -52.328209390053296 -147.9452904762603 0 18 -11
10 1 1 -1 -2.363508451332089 -53.874072718058045 -146.00571009352603 0 18 -11
41 1 5 0 -16.67366710965291 -48.702341011378884 -139.78187763192696 0 18 -11
13 1 1 -1 -8.018753869476035 -52.77802561643739 -145.80491322406425 0 18 -11
40 1 1 -1 -13.265482270723549 -52.371405720759846 -142.3618266864162 0 18 -11
112 3 12 0 -5.153584529588829 -48.94014325681173 -141.04106759392815 -1 18 -11
37 1 1 -1 -15.023454147089184 -48.02577669931117 -145.44024446786725 0 18 -11
111 3 12 0 -10.22879048268581 -48.05782142550184 -143.10057401187714 -1 18 -11
110 3 14 0 -13.34847641483411 -49.49902005993516 -147.67859675302586 -1 18 -11
34 1 1 -1 -18.694584782653205 -43.81091233464577 -144.94306395030702 0 18 -11
16 1 1 -1 -13.093952540576883 -52.50228516904328 -148.43253051973886 0 18 -11
43 2 1 -1 -8.885234582074197 -44.57646490275299 -148.4712499583933 0 18 -11
76 2 1 -1 -18.58145908393974 -47.20267702368162 149.60748137736581 0 18 -12
114 3 12 0 2.444075095167427 -44.45272675446449 -144.95719153270403 -1 18 -11
82 2 1 -1 -10.873446746688035 -38.987849935816 148.87256540058513 0 18 -12
113 3 12 0 -0.19294680096718878 -49.385552557846744 -143.4335328398021 -1 18 -11
7 1 1 -1 2.159385785809157 -52.69194684164681 -149.5125094466604 0 18 -11
116 3 12 0 8.692516436726448 -40.395872660906846 -149.62615117990973 -1 18 -11
120 3 11 0 5.167899642522422 -45.4764107899056 149.41020933672348 -1 18 -12
115 3 10 0 5.048109878327303 -44.490641817744866 149.98012067677416 -1 18 -12
119 3 12 0 9.560026144652404 -47.686869250444445 147.89641326677287 -1 18 -12
118 3 12 0 9.937439316649613 -45.470649857187496 -146.8513991454823 -1 18 -11
117 3 12 0 9.134562765229072 -40.89674010589395 -144.01923829753952 -1 18 -11
92 3 12 0 -26.59675053530568 -39.30891303598384 122.93738959768174 -1 18 -12
93 3 12 0 -22.33986735917618 -42.2992964800694 125.4112768749544 -1 18 -12
91 3 10 0 -21.42027222008934 -38.37132536137247 121.25478557256973 -1 18 -12
94 3 11 0 -20.81974195080296 -38.590325885631835 121.59686863600636 -1 18 -12
98 3 12 0 -16.422753053242403 -52.65689412410081 122.92236761243444 -1 18 -12
90 3 12 0 -23.600454741065093 -33.63392516370753 119.42633417348368 -1 18 -12
95 3 12 0 -19.59967183162621 -44.1631168201893 120.71360003580925 -1 18 -12
96 3 12 0 -14.08547613162671 -45.58335035217676 120.58637681575476 -1 18 -12
97 3 10 0 -17.052667441708135 -47.60306415419656 124.58168848458257 -1 18 -12
100 3 11 0 -16.937641910353975 -47.21541444650362 125.16555994784646 -1 18 -12
99 3 12 0 -15.514021062889666 -51.61590285861637 128.0176382537322 -1 18 -12
101 3 12 0 -17.59122991791565 -44.026672863292134 130.200264585966 -1 18 -12
86 3 12 0 -28.767071445271874 -23.902919497790737 117.31160823973764 -1 18 -12
87 3 12 0 -32.533157738394486 -27.806577792557434 117.03310527179733 -1 18 -12
85 3 10 0 -27.701988619894028 -27.63609813641924 113.47681165040188 -1 18 -12
88 3 11 0 -28.45871073811793 -27.829302338023467 113.30629722788615 -1 18 -12
89 3 12 0 -25.471139509383516 -32.35053589107114 114.50529434228173 -1 18 -12
75 2 7 0 -21.264087194602784 -58.04972941196069 147.94464818297718 0 18 -12
72 2 9 0 -19.192732732467032 -59.205612052723886 148.16242532792506 0 18 -12
69 2 6 0 -15.841157901454224 -60.22679321418457 148.25171048626166 0 18 -12
66 2 7 0 -14.809818597125684 -61.687294584606704 146.64617031989593 0 18 -12
65 2 3 0 -13.402975690307308 -62.05505550394874 147.82079180689936 0 18 -12
62 2 2 0 -10.354369194361508 -61.574754878202896 146.54123720723894 0 18 -12
63 2 6 0 -11.177325642212818 -59.66294846532847 146.60488841613116 0 18 -12
21 1 7 0 -11.434295182071775 -58.00793375556488 146.6949322935574 0 18 -12
55 2 1 -1 -6.163223810549041 -58.88693416493659 139.3048928201561 0 18 -12
58 2 1 -1 -5.801295198424087 -63.81953094819381 142.18569508660167 0 18 -12
61 2 1 -1 -7.438154917793249 -66.09640564726212 147.26734819787342 0 18 -12
59 2 3 0 -7.5333527078034725 -60.09463083299063 145.7402775517908 0 18 -12
56 2 4 0 -6.103296092287422 -57.42980999265607 144.37795755542152 0 18 -12
60 2 7 0 -8.599506644311177 -58.52228771582883 146.71068238576916 0 18 -12
57 2 8 0 -6.091670482810662 -56.70158851543583 146.27959789684522 0 18 -12
18 1 6 0 -8.943989559594037 -57.14288131727908 147.4776491646877 0 18 -12
20 1 3 0 -12.4271294941184 -56.11665412018988 146.5134589852608 0 18 -12
26 1 3 0 -25.62371897774648 -49.770007332093094 148.2390760344932 0 18 -12
24 1 6 0 -25.623625827021282 -52.901763713222095 147.1299891053312 0 18 -12
23 1 2 0 -24.301452183196222 -51.989860883625866 146.16498612800663 0 18 -12
28 1 1 -1 -27.483009555686937 -43.28090492647529 148.8763971674463 0 18 -12
25 1 1 -1 -25.22918241056051 -45.90763110246697 144.31480600060416 0 18 -12
22 1 1 -1 -20.37557907690314 -49.105995563908486 144.01524270297645 0 18 -12
78 2 7 0 -20.323514734129493 -40.957266941384205 146.2609365734328 0 18 -12
77 2 3 0 -19.97366001196303 -42.47007649366169 147.2631448068177 0 18 -12
81 2 8 0 -19.102546160803996 -38.84717825670569 145.91250157525928 0 18 -12
79 2 1 -1 -14.764510426065273 -42.91347042945991 -149.62733763974452 0 18 -11
15 1 9 0 -6.494940292885926 -55.96791698877823 147.7377753037534 0 18 -12
14 1 5 0 -6.634243881906794 -55.29933324388542 149.62634431466125 0 18 -12
11 1 3 0 -3.8189831099518554 -53.933803118308134 148.65607350985243 0 18 -12
109 3 13 0 -17.33220708006372 -47.69765272345035 149.43565538459129 -1 18 -12
44 2 5 0 -5.198963542605613 -45.942782831166966 147.74611477396047 0 18 -12
102 3 12 0 -12.174288145418476 -44.03563301798618 131.47385306693988 -1 18 -12
8 1 3 0 -1.4805682501897615 -52.820249972836564 146.6307208391086 0 18 -12
6 1 8 0 -2.828353832916903 -48.364518312895115 146.09100067719766 0 18 -12
45 2 9 0 -3.7568727053108053 -47.12502508825329 146.80374336235016 0 18 -12
3 1 8 0 -3.1793398267534716 -47.26765297771246 145.1682346224235 0 18 -12
48 2 9 0 -4.42658001435346 -48.33812941723522 145.55445416715276 0 18 -12
5 1 4 0 -1.0124478116525342 -49.401537621341525 146.0877736686735 0 18 -12
2 1 4 0 -1.282583550183159 -47.07797238004996 144.02323872826818 0 18 -12
104 3 12 0 -16.05023897925717 -49.985230599886194 137.86828660696605 -1 18 -12
17 1 2 0 -9.801745275417824 -55.835841311362145 148.68293575545374 0 18 -12
12 1 7 0 -4.454900146813801 -53.3862152473606 146.57140668120778 0 18 -12
53 2 2 0 -6.071603740395058 -54.310257618148334 143.53267655408936 0 18 -12
54 2 6 0 -4.710751311540999 -53.48898959153027 144.87997602227992 0 18 -12
105 3 12 0 -11.045552865985178 -48.087155238317536 136.40376412546445 -1 18 -12
52 2 1 -1 -9.597585930678385 -54.280076670605304 139.35340647025126 0 18 -12
103 3 10 0 -15.545488456795017 -44.729239608610065 135.79972934886302 -1 18 -12
106 3 11 0 -14.940170271800676 -44.0833111738302 137.7260760439002 -1 18 -12
9 1 7 0 -3.4557310848415974 -52.80022336240352 145.75814091680192 0 18 -12
51 2 6 0 -5.037235277868588 -52.30643386456945 145.3671737690847 0 18 -12
107 3 12 0 -19.157265644821525 -43.157034809076855 141.07722162356936 -1 18 -12
50 2 2 0 -6.741310623777386 -51.3181671091077 144.652868420466 0 18 -12
19 1 1 -1 -16.221027132021135 -52.069569229655635 146.76862694239233 0 18 -12
108 3 12 0 -15.21506529174722 -45.48703883914512 144.49361023516835 -1 18 -12
80 2 4 0 -17.827235575825423 -40.10239676874816 146.84980274230014 0 18 -12
49 2 1 -1 -11.722475398834879 -50.00167248179277 142.50134834383596 0 18 -12
47 2 5 0 -6.563360176316712 -48.163504787865904 145.8592205178706 0 18 -12
46 2 1 -1 -11.684461043451686 -47.988166379982815 147.83688526145167 0 18 -12
4 1 1 -1 4.332401765283439 -50.7864422204776 145.58199247972405 0 18 -12
1 1 1 -1 3.6182208133959315 -47.04121539020385 141.38228419635803 0 18 -12
83 2 4 0 -15.67856444805451 -37.57058824936277 146.80025924495936 0 18 -12
84 2 8 0 -17.46937074225529 -36.82410386571485 146.75356275013814 0 18 -12

Velocities

74 -0.021757285068989028 0.0315070984270381 -0.008428831536744475
67 -0.04642023722191051 -0.010128540897231818 0.007735930575451621
64 0.004412333825592707 0.021268818451820617 -0.058777387738333055
70 0.040223872565835095 0.01197237124422755 -0.0057891465601417075
68 0.04853635403545913 0.024159646959201937 -0.03229084175078336
71 -0.028718706112389653 0.0034283446018357143 -0.029983339944908816
36 0.0023127496022386724 -0.01648471631073122 -0.017433474020898943
39 0.009716182109370081 -0.01991903042241101 -0.07409051465903091
33 0.013142897535183608 -0.0045642491373533295 0.05632900459508089
35 -0.025562105253518045 -0.028179426419807977 0.015610242034874912
32 -0.008221848790772982 0.06855298608828704 -0.0193481890668247
31 -0.01262713835129528 0.05006091872102804 0.013839712881753969
30 0.003291349686182366 -0.029365290489383505 -0.019467114674835223
29 0.015491375673134843 -0.013032930485226456 -0.010007011333458434
27 -0.05697312841362963 -0.01706478973802721 -0.012125039951926299
38 0.03199810410561034 -0.0018756248129491772 -0.11392991676103607
42 -0.011988395608029445 -0.008721033377753038 0.0008682716297001491
73 0.021251657361357628 -0.04217333630880181 -0.012584214738656419
10 0.019511044118481997 0.008349520404463294 0.007149254012158876
41 -0.029793979098173648 0.022138455445333795 -0.01966277501358561
13 0.06310835529532542 0.01830738086825171 -0.0027734878761835986
40 0.03953616524167435 -0.04454145250961058 -0.037082584249931355
112 0.03962010177879752 -0.01993712272789865 -0.017666779285016733
37 -0.03950736418488641 0.050167543900993476 -0.006436314669132887
111 0.003664455374126496 0.03497645564309033 0.006119825374040342
110 -0.017193699345281536 0.0171097269118767 -0.01787726192868443
34 -0.002761491258406996 -0.023136629046021106 0.040188652104265844
16 -0.07982862311297745 0.02840685270113167 -0.01490084040023448
43 0.011201449321395014 -0.049534863357306544 -0.06872817535293078
76 0.0006418567451004211 0.01856260379912852 -0.027747217165785244
114 0.03697672013541158 -0.005305376516711576 -0.003955246226355913
82 -0.029468626150321295 0.005645713616829362 -0.07794949102699325
113 -0.04502295725289679 0.0594776626998348 -0.05232304178850454
7 -0.03311858596695507 -0.03638158427092964 -0.019814878298330958
116 0.04334882810209762 -0.04284749489799586 0.03862468989972438
120 0.04549654449623458 0.005732931115288382 -0.020228748883385633
115 0.015571379918628102 0.005673879782231979 -0.021662509415484223
119 0.03609143134299904 0.0008188780186053884 -0.040174590362386166
118 -0.002502879969970815 -0.05226545352967254 -0.03381008586590518
117 -0.018866018276869095 0.010812682596689138 -0.027145221231398696
92 0.037425690948564704 0.07659449695049632 0.036438138384800166
93 -0.008147245594971831 0.001988591456788686 -0.02390065784316283
91 0.02027539072882526 0.015475580682445075 0.010683275941507375
94 0.015767918393998027 -0.014703802227320692 -0.028386071304305205
98 0.040744892545451945 0.0042041932396596916 -0.027941611936776425
90 0.04372462648161081 0.08491622378635263 -0.02631373265730588
95 -0.018609128889980873 -0.028425457636843676 -0.011948988538991852
96 -0.005010816812896105 0.05161364041035779 -0.018111952510674892
97 0.0300743520961198 -0.029097584412766463 -0.004540955366136141
100 -0.024788095928711562 -0.017834031080020546 -0.007958374882291735
99 0.014912638815267651 0.014985699162102297 0.017987119043542096
101 0.0041017664300764456 -0.00717993989385564 0.0233546506921023
86 0.03707107272808529 -0.0004812406327208304 0.0377187483392853
87 -0.032490534047665894 -0.03573899723102469 0.013378465978505406
85 -0.030149751719885876 0.039437407033217846 -0.01629584596626755
88 -0.0002024169947074068 0.011757544589691143 -0.05457585409920199
89 0.0463212951638013 0.03516131904239735 0.028305657611212256
75 0.006682807650525258 0.04507834685748128 -0.04740134162159725
72 0.008095761310915968 -0.012696047096029157 0.05387228397404814
69 0.007221377843303482 0.029938282041842963 0.012978461553399616
66 0.010942313134073213 -0.06850212945483569 -0.017530492899719106
65 0.04170628413483774 0.047530954817092935 0.038340327753329496
62 0.007830493859964135 0.003715542877282425 0.023968695289686863
63 0.02279262811205907 0.047378102068522755 0.031112693990277957
21 -0.016045958914467223 -0.036478703440778304 0.042323578369989324
55 0.02517936179817506 -0.05581771487344491 -0.03502122112296374
58 0.02678724168402738 -0.025817319736128202 -0.01899349840002535
61 0.011818898332302563 0.014992039294535988 -0.026968454710694766
59 -0.016279047352999277 0.0006597108186430184 -0.041880485316556956
56 -0.024703638288804893 -0.022171463388032924 0.012573690536288273
60 -0.03172182258687026 -0.038095801586150835 0.051415189247287135
57 0.02010131096089601 -0.03911817341117177 0.06975453139292562
18 0.041144027205794194 -0.015030158915021194 0.00987188270867999
20 0.05550180562903811 -0.01838057282720803 -0.06508319555737181
26 -0.05505173055899158 -0.00476231777494194 0.010818514823825422
24 0.002611884853363309 -0.008901793441522846 -0.036653379939538794
23 -0.058343501287052145 0.06967668404830922 -0.017899857182942982
28 -0.018170537064161656 -0.06097079320930372 0.0015213522555867867
25 -0.002397350784116785 0.034378128803564174 -0.007117301807990002
22 0.014156698017982 0.037560534087242796 0.015789164482955784
78 0.008877428082575288 -0.00263378282578135 0.009408764842340333
77 -0.04915062750962381 -0.0010825755268242961 0.003780254546763765
81 -0.03325372356378991 0.024533078533480933 -0.027187321791726036
79 -0.05229281641528755 0.011137862699018612 -0.04034688881401999
15 -0.01935507336551521 -0.024500830722350722 0.011590713619210543
14 -0.011515083755690549 -0.027606137208057803 -0.024831854957241824
11 -0.05386969925717062 0.02526013864506065 0.06609889515495179
109 0.013408044374803862 -0.030261684340510655 0.015699240509687445
44 -0.009218629669287956 -0.06521938664913546 -0.013153457413202358
102 -0.01996998558165904 -0.017549969773159445 0.0026617007347467772
8 0.05120894045495492 0.011982867322514539 0.02900230748156091
6 0.04906449014894392 -0.04203384046093949 0.04269438284472704
45 0.03553598230561757 -0.0003260198397280228 0.00945168409516978
3 -0.014589777784381223 0.007419177755911493 -0.004431587613851073
48 -0.04297274612645538 0.007325216132440981 -0.02415222545016535
5 0.012149372904041516 -0.002599175317542386 -0.01398928415193724
2 0.023068255268038435 0.006588684915144394 -0.05018549268721884
104 0.0034804632429740467 0.04324852250689535 0.014758119642309284
17 -0.018245804586098053 -0.04810341250168789 0.002435808806227949
12 -0.004288975487839643 0.05335425484102117 0.007658807375868759
53 0.008545735958817297 -0.03180800756225837 -0.015680252713253007
54 0.033649117907125846 -0.024090004973954093 0.00048451811346425706
105 0.0015785006028258943 0.035304393071916636 0.06526887220098161
52 -0.004098211156788581 -0.02188574033681959 -0.010796525009560416
103 -0.04227150153624732 0.039790388935685865 -0.04145725048698981
106 0.04339897646707769 -0.013582467388042137 0.03488673205157966
9 -0.0541609727808694 -0.018526618772011217 0.025786164692399142
51 -0.035984803042982086 0.02038367555590394 0.0676030423320091
107 0.05098023774378312 -0.0042428323261039964 0.0036788968519657866
50 -0.023931013582852302 -0.0898858273186523 -0.030036939222100736
19 -0.008481134184044323 0.005894438370946201 0.0011223213263537775
108 -0.02228674262003831 0.04956526367828902 0.020979855012715928
80 0.030205570426217816 -0.06747774638310955 0.024784489330544574
49 0.04104621055172476 0.012309054206637412 -0.021510466903663112
47 0.003721883466036201 -0.006825616703529596 -0.005194849199768377
46 0.008925406874995209 0.05051650461960302 0.006450060722674456
4 0.06878191072277051 0.019126642725957068 -0.04413171882659257
1 -0.024480083802296826 0.06792288333490548 0.008308154089376206
83 -0.04725804675334623 -0.08691823440000926 0.006090478684337942
84 0.03054581778098309 0.029352112629179954 -0.0034192859660994016

Bonds

1 3 74 75
2 2 67 68
3 1 67 70
4 2 64 65
5 1 64 67
6 2 70 71
7 1 70 73
8 3 68 69
9 3 71 72
10 3 35 36
11 3 32 33
12 2 31 32
13 1 31 34
14 3 29 30
15 3 38 39
16 2 73 74
17 1 73 76
18 2 10 11
19 1 10 13
20 3 41 42
21 2 13 14
22 1 13 16
23 2 40 41
24 4 112 113
25 2 37 38
26 1 37 40
27 4 111 112
28 4 110 111
29 2 34 35
30 1 34 37
31 2 16 17
32 1 16 19
33 2 43 44
34 1 43 46
35 2 76 77
36 1 76 79
37 4 114 115
38 2 82 83
39 4 113 114
40 2 7 8
41 1 7 10
42 4 116 117
43 4 115 116
44 4 119 120
45 4 118 119
46 4 117 118
47 4 92 93
48 4 93 94
49 4 91 92
50 4 94 95
51 4 98 99
52 4 90 91
53 4 95 96
54 4 96 97
55 4 97 98
56 4 100 101
57 4 99 100
58 4 101 102
59 4 86 87
60 4 87 88
61 4 85 86
62 4 88 89
63 4 89 90
64 3 65 66
65 3 62 63
66 2 55 56
67 1 55 58
68 2 58 59
69 1 58 61
70 2 61 62
71 1 61 64
72 3 59 60
73 3 56 57
74 3 20 21
75 3 26 27
76 3 23 24
77 2 28 29
78 1 28 31
79 2 25 26
80 1 25 28
81 2 22 23
82 1 22 25
83 3 77 78
84 2 79 80
85 1 79 82
86 3 14 15
87 3 11 12
88 4 109 110
89 3 44 45
90 4 102 103
91 3 8 9
92 3 5 6
93 3 2 3
94 4 104 105
95 3 17 18
96 3 53 54
97 4 105 106
98 2 52 53
99 1 52 55
100 4 103 104
101 4 106 107
102 4 107 108
103 3 50 51
104 2 19 20
105 1 19 22
106 4 108 109
107 3 80 81
108 2 49 50
109 1 49 52
110 3 47 48
111 2 46 47
112 1 46 49
113 2 4 5
114 1 4 7
115 2 1 2
116 1 1 4
117 3 83 84

Angles

1 2 73 74 75
2 1 64 67 70
3 1 61 64 67
4 1 67 70 73
5 2 67 68 69
6 2 70 71 72
7 2 34 35 36
8 2 31 32 33
9 1 28 31 34
10 2 28 29 30
11 2 37 38 39
12 1 70 73 76
13 1 7 10 13
14 2 40 41 42
15 1 10 13 16
16 1 34 37 40
17 1 31 34 37
18 1 13 16 19
19 1 73 76 79
20 1 4 7 10
21 2 64 65 66
22 2 61 62 63
23 1 52 55 58
24 1 55 58 61
25 1 58 61 64
26 2 58 59 60
27 2 55 56 57
28 2 19 20 21
29 2 25 26 27
30 2 22 23 24
31 1 25 28 31
32 1 22 25 28
33 1 19 22 25
34 2 76 77 78
35 1 76 79 82
36 2 13 14 15
37 2 10 11 12
38 2 43 44 45
39 2 7 8 9
40 2 4 5 6
41 2 1 2 3
42 2 16 17 18
43 2 52 53 54
44 1 49 52 55
45 2 49 50 51
46 1 16 19 22
47 2 79 80 81
48 1 46 49 52
49 2 46 47 48
50 1 43 46 49
51 1 1 4 7
52 2 82 83 84
