LAMMPS data file via write_data, version 29 Aug 2024, timestep = 4000000000, units = nano

120 atoms
14 atom types
117 bonds
4 bond types
52 angles
2 angle types

-150 150 xlo xhi
-150 150 ylo yhi
-150 150 zlo zhi

Masses

1 3534.1
2 3534.1
3 3534.1
4 3534.1
5 3534.1
6 3534.1
7 3534.1
8 3534.1
9 3534.1
10 3534.1
11 3534.1
12 3534.1
13 3534.1
14 3534.1

Bond Coeffs # harmonic

1 347.35 5.75
2 347.35 5.5
3 347.35 1.95
4 69.4692 5.5

Angle Coeffs # cosine/squared

1 138.94 180
2 555.75 180

Atoms # full

68 2 2 0 -50.96896492225225 30.160008037234686 32.61884026758965 0 18 -12
69 2 6 0 -49.08305687945211 29.430875599854506 33.23059050520333 0 18 -12
71 2 5 0 -49.14844601462182 31.162324861107518 30.119454634428376 0 18 -12
72 2 9 0 -47.66871111746678 29.759795313346043 30.55283562290834 0 18 -12
67 2 1 -1 -55.92404087949575 32.34421249100336 32.50898944784406 0 18 -12
30 1 8 0 -46.21583637509216 28.882542675857085 30.323218574957895 0 18 -12
27 1 7 0 -47.6587436574317 28.356928479690758 33.39085554705985 0 18 -12
26 1 3 0 -45.873364130790776 27.457635437607262 33.49734794992273 0 18 -12
29 1 4 0 -44.86185383709635 27.3407955091965 30.383529299380836 0 18 -12
32 1 2 0 -42.56366117028963 28.719823743388446 28.644319122351067 0 18 -12
70 2 1 -1 -52.2727830793203 35.59605096193429 29.39311095730888 0 18 -12
33 1 6 0 -42.56125081462685 29.52014241723556 30.423959747927068 0 18 -12
75 2 7 0 -47.3724446003247 30.49867560438719 27.467440814185952 0 18 -12
74 2 3 0 -47.63994165009279 32.30287727705307 27.318514055905123 0 18 -12
34 1 1 -1 -42.96067613467623 31.477114383958636 23.30590148956269 0 18 -12
31 1 1 -1 -43.34496100730601 25.730411011905748 24.10430760893648 0 18 -12
19 1 1 -1 -41.4097852336191 35.08777913852034 33.876328918507134 0 18 -12
35 1 2 0 -40.05934901783867 30.725552332868123 27.898183631107603 0 18 -12
38 1 5 0 -38.28861893620366 33.568180856109265 28.221645713951094 0 18 -12
36 1 6 0 -38.65445434776566 30.790919209478158 29.28014254068072 0 18 -12
28 1 1 -1 -42.790733020553844 22.403722038029088 28.87421258590819 0 18 -12
37 1 1 -1 -42.035854052818024 36.67011558870175 25.44492736587861 0 18 -12
25 1 1 -1 -41.46980142772428 24.180835764345062 34.23851354650893 0 18 -12
22 1 1 -1 -40.23798315912041 29.707164104859192 35.47227970947664 0 18 -12
66 2 7 0 -49.307334803849415 31.018003238931097 35.989196178167745 0 18 -12
24 1 6 0 -47.51509068474147 30.717914532420977 36.24321323989958 0 18 -12
23 1 2 0 -45.56513280985763 29.969811242458693 35.682934119846834 0 18 -12
17 1 2 0 -47.722300515997816 36.04538097499926 35.83030916695355 0 18 -12
20 1 3 0 -45.99534751549044 33.1856362267216 36.40554063646817 0 18 -12
41 1 5 0 -35.845740494122786 35.72948378425545 28.095357281355685 0 18 -12
39 1 9 0 -37.622272261926575 32.29288027925488 29.67614102769229 0 18 -12
42 1 9 0 -34.20102444870391 34.542494743635956 28.235944952036863 0 18 -12
101 3 12 0 -60.06170053055993 50.112631098833454 23.246408424265862 0 17 -11
98 3 12 0 -67.48173196822384 51.86435368556382 27.47587300505995 0 17 -11
100 3 11 0 -61.58829316144288 51.39658286733141 28.276713688248694 0 17 -11
97 3 10 0 -62.15119816140831 51.11400198955903 29.112727481415963 0 17 -11
99 3 12 0 -63.95660374555674 56.193448599218335 26.347386211805418 0 17 -11
96 3 12 0 -60.684802865121945 50.796818947357885 34.43834921737318 0 17 -11
73 2 1 -1 -47.81176325624158 37.78378167947278 26.778501923980638 0 18 -12
102 3 12 0 -54.67713165536483 49.825951392015604 22.846815448338653 0 17 -11
107 3 12 0 -47.28664108412924 46.98629587589221 22.447991607398723 0 17 -11
103 3 10 0 -49.93830082953751 51.373378927454176 25.144143743459235 0 17 -11
16 1 1 -1 -44.9957396740378 39.148568538146186 31.97465715780973 0 18 -12
106 3 11 0 -49.5007431843912 51.27717050731098 25.180921906924826 0 17 -11
13 1 1 -1 -50.48648166262547 40.67824011288876 31.822125188561017 0 18 -12
43 2 1 -1 -45.802648142470964 45.23008604031254 31.5615307557938 0 18 -12
108 3 12 0 -49.49435063621364 44.191949977289546 26.78807732876091 0 17 -11
76 2 1 -1 -44.084539939390105 42.04764507865574 26.441886287032446 0 18 -12
109 3 13 0 -45.33006276685721 42.40543181905914 30.011032562739942 0 17 -11
77 2 3 0 -39.60744680821222 42.03427034093453 23.31531370231557 0 18 -12
78 2 7 0 -37.74054276378495 42.33225717773584 22.755053360989855 0 18 -12
79 2 1 -1 -39.6808481052495 45.165609394983484 28.36835215835145 0 18 -12
110 3 14 0 -40.88788222087219 39.212181332141256 31.064395838652818 0 17 -11
40 1 1 -1 -39.549917122915524 39.56237537513752 29.721846297657844 0 18 -12
80 2 4 0 -36.626596415807896 42.84910558546592 24.512187318387358 0 18 -12
46 2 1 -1 -41.36970977635886 43.18834481158101 34.34902929113684 0 18 -12
105 3 12 0 -53.08119232352087 49.40647454278589 29.220651234848376 0 17 -11
10 1 1 -1 -54.84561393400622 42.70314177347601 35.15568789050592 0 18 -12
104 3 12 0 -47.51064226046727 50.64099339201945 29.817329303878683 0 17 -11
44 2 5 0 -45.67374821769042 46.71122140669364 36.81474795689706 0 18 -12
81 2 8 0 -35.65556171148855 41.565605357477885 23.402186718218136 0 18 -12
82 2 1 -1 -34.78947549327164 45.35337228283723 31.266442474869407 0 18 -12
111 3 12 0 -36.454985104064086 38.21158371932934 34.084082121798474 0 17 -11
84 2 8 0 -33.773463891903155 43.2832626727087 24.18358378823223 0 18 -12
83 2 4 0 -33.79191896903073 43.50386551606538 26.079828495792107 0 18 -12
119 3 12 0 -32.44959819175192 55.0580715396213 39.0051919426498 0 17 -11
95 3 12 0 -59.46751765092597 54.919745568127915 37.88607471777965 0 17 -11
90 3 12 0 -64.25463830521048 64.94321006998385 39.06648904993631 0 17 -11
89 3 12 0 -59.3269723349897 67.16675060642635 38.65754626041914 0 17 -11
65 2 3 0 -51.2148328941913 30.57365844620625 36.20142591431923 0 18 -12
64 2 1 -1 -56.346895530208315 29.11012270542836 37.31776500326487 0 18 -12
18 1 6 0 -48.66066481432334 35.17267865933429 37.50369188135944 0 18 -12
63 2 6 0 -48.693060116615996 32.046358978051906 38.49270804009441 0 18 -12
21 1 7 0 -47.4131612680913 32.48199938802484 37.57205519723915 0 18 -12
62 2 2 0 -50.3647630600488 31.2534373707271 39.210417275620294 0 18 -12
60 2 7 0 -49.476571773537685 34.71620297895392 38.985470190386096 0 18 -12
61 2 1 -1 -54.47186633950829 30.19126208680796 42.61852718762575 0 18 -12
59 2 3 0 -50.00557446871243 34.04641596049395 40.77267302476195 0 18 -12
56 2 4 0 -48.04395174545046 36.596484696144984 41.79510623106044 0 18 -12
58 2 1 -1 -50.588105466795895 32.66140704369525 45.9864056690304 0 18 -12
55 2 1 -1 -45.578702539657954 35.33739804615584 46.65715898883858 0 18 -12
57 2 8 0 -49.049859799884075 37.46508710631468 40.21383431699992 0 18 -12
7 1 1 -1 -55.189964315684335 45.918835445795715 39.824824904947796 0 18 -12
15 1 9 0 -49.59612746302144 38.02217471442626 38.60314219630698 0 18 -12
14 1 5 0 -49.920459969808896 38.421395556311595 36.64111726507163 0 18 -12
4 1 1 -1 -52.938745856611646 47.90997346470008 44.72522736988743 0 18 -12
1 1 1 -1 -48.0251036679006 49.52539410808352 47.54480228271629 0 18 -12
11 1 3 0 -50.81198155754398 41.026668181899225 38.549060283178655 0 18 -12
12 1 7 0 -48.961976676795665 41.195984281937804 39.41291057446633 0 18 -12
54 2 6 0 -47.970545535683556 40.64971123630957 40.687862575323116 0 18 -12
53 2 2 0 -46.39246223521524 39.63062593357009 41.78275038191732 0 18 -12
52 2 1 -1 -41.6430225004234 38.060847553520276 43.78191542887844 0 18 -12
5 1 4 0 -49.01542219613685 46.23013484250713 41.152965228968434 0 18 -12
8 1 3 0 -50.48835303825029 43.382426729336956 40.59517847510355 0 18 -12
9 1 7 0 -48.815693579610645 42.105218433136166 40.375377743838776 0 18 -12
51 2 6 0 -47.38793792321942 41.49012608693108 39.713569862541185 0 18 -12
2 1 4 0 -46.58958814598293 48.055569533464435 42.47365895104288 0 18 -12
6 1 8 0 -47.07858130700121 46.14064625066111 40.32862912153734 0 18 -12
3 1 8 0 -46.35738931974354 47.04217199378208 40.61615577899241 0 18 -12
50 2 2 0 -45.04245804146824 41.47394368653391 39.33372929586828 0 18 -12
45 2 9 0 -46.21814925141442 46.519682604170015 38.95343269084545 0 18 -12
48 2 9 0 -45.562832611123476 45.654466920484055 39.84100970604894 0 18 -12
49 2 1 -1 -39.72889079624129 40.007700605449635 38.746024111456244 0 18 -12
47 2 5 0 -44.14329482911889 44.55445209011342 38.83600882269697 0 18 -12
118 3 12 0 -37.845016542081076 54.33761274940573 40.44385137034932 0 17 -11
117 3 12 0 -34.91797861735267 55.20350219536598 45.168068395193565 0 17 -11
112 3 12 0 -33.900732524130476 37.95566582396583 39.08376004997793 0 17 -11
116 3 12 0 -33.45396246527273 50.44473087691459 47.587194642398885 0 17 -11
115 3 10 0 -32.76233257347207 50.24227082649577 42.09110171156775 0 17 -11
120 3 11 0 -33.55543389872038 50.36671176093313 41.41557300364777 0 17 -11
114 3 12 0 -30.573101879978346 45.01833359368668 42.16503622850407 0 17 -11
113 3 12 0 -33.10480937342395 40.479875025211356 43.85675077599451 0 17 -11
91 3 10 0 -60.9517278232617 60.57602051712794 39.929037636713375 0 17 -11
94 3 11 0 -60.07155320701517 60.304884241350265 38.87813702551373 0 17 -11
92 3 12 0 -57.68152041780636 61.412785961464024 44.204399500953905 0 17 -11
88 3 11 0 -59.40007679958727 71.96070600625578 41.59515717673938 0 17 -11
85 3 10 0 -58.34469206566906 71.87903963400305 41.46495115053856 0 17 -11
93 3 12 0 -55.66370909458854 62.92635409527938 39.40882515317159 0 17 -11
86 3 12 0 -58.0010818594243 77.54097347228323 41.985031411847345 0 17 -11
87 3 12 0 -59.26341887858529 75.16877651961894 36.97878113939289 0 17 -11

Velocities

68 -0.03000750501866644 0.027961867619892597 -0.07643810839280867
69 0.008835664203514232 -0.006824233626731086 -0.00564343504951446
71 -0.0008880793419914907 -0.03034913259524764 -0.023517636747336763
72 -0.03872610382374046 0.03875074783256698 0.016333323424518813
67 0.00351258802647072 -0.01951749572336579 -0.04442861639653504
30 -0.04085528625893666 -0.015048784518259656 -0.015781749696655804
27 0.06677036346700818 -0.05210782668188156 -0.0057677994768253514
26 -0.0378271007718508 0.016214668066812155 -0.0012784845864603454
29 -0.052897761915524574 0.03767526811917224 -0.02383365160653536
32 0.0068277519123686676 0.05435979461385862 -0.02051938023405696
70 0.011266833684555243 -0.030843665065509233 -0.008326641846440696
33 0.04673378777481366 -0.015790211364827004 -0.027922757807236753
75 -0.03703287838308638 -0.06609332236360435 0.05076299167277916
74 -0.024255892518794217 0.01651599955165906 -0.05821219697868778
34 -0.031032502294006174 0.0012605958996634884 -0.007126669868460761
31 0.034838926849214524 0.015395991250895575 -0.020684177289118626
19 0.035105411641669367 -0.06695384692790268 0.023840685381072358
35 -0.010832012051824436 -0.0516710295487577 0.019337855234642827
38 0.05202430759767287 -0.02788123403912983 -0.021543244391458154
36 0.058500464159422116 -0.04284319211637701 0.0023878249888087373
28 0.020642357249165848 -0.05247828201514993 0.0690482736117646
37 -0.02039896794170839 -0.019407429299578297 0.052591517249212884
25 0.011046602140177997 -0.11156009875678537 -0.05377433774961329
22 0.030509076828467405 -0.018054866481834683 0.008299757177689354
66 -0.02923117074475205 0.010962342031444295 -0.02309956647654538
24 0.02363158917883992 -0.035763615637869145 -0.030277135120494337
23 -0.017476536810242485 0.06191335882948196 -0.022087980890744322
17 -0.04730054246643326 -0.007743217450546343 0.0014598802073550858
20 0.03870401628431305 0.007237584752677121 0.04390420513603877
41 -0.021094325578862212 0.00612986305125436 -0.019394906260917166
39 0.034518191898123794 0.029932075080154347 -0.024235996083267142
42 -0.04645185702886006 -0.055341454716625715 0.0031203268917130143
101 -0.007499285280046479 0.010263716987768297 0.021381398694933523
98 0.03452232909504321 0.02791790109179587 -0.0031181644364032695
100 0.03831482471204579 -0.002531806675749865 -0.016863828351181612
97 -0.03357269299430354 -0.002936033796283423 0.0259533039899293
99 -0.033794783326388765 -0.037482620806992155 0.024073601684499728
96 -0.0035587110268993005 0.04950388654843814 0.0032473704443991423
73 0.02337191990193983 -0.03500358021106565 -0.02089756792455234
102 -0.0063276153917255756 0.04042728735759266 0.050812043326241105
107 0.07925310025281748 -0.022514606591814985 -0.058893773480916185
103 0.006266677062856847 -0.03835613575198356 0.04099157349037244
16 0.021597807175966613 0.0384779570594204 -0.04953873008031292
106 -0.01290021879387221 0.023527214807293466 -0.008716438138945954
13 0.006855765757283918 -0.004934343643740724 -0.014712100320637807
43 0.05445897582191425 -0.007331643231504557 0.02647561150620009
108 0.006305901679238545 -0.02459832034590927 0.04735554007276347
76 0.04565884210311833 -0.006518697462260832 -0.07708754169373866
109 -0.08922071615019872 0.047493115812649686 0.008449905149724997
77 0.009555192158493955 0.04596382140238685 -0.015381660912954663
78 0.04204973675113559 -0.019028273184131493 0.03170066341419009
79 -0.04351473470996135 0.019126605468174858 0.03868381346955893
110 0.04175931888278687 -0.029592443431140904 0.009466418144090352
40 0.015277616815477929 -0.016136229253855435 -0.056408500757029814
80 0.0629415262698677 0.013283671238812935 -0.05543069161736376
46 -0.014853209164007012 -0.0256381244030505 -0.02808619721593589
105 -0.023217709764429953 0.07328649040238115 0.05029487456733546
10 -0.018654770191636142 -0.004704306204532842 0.011540270312073917
104 -0.04606758712268444 -0.005962906170112097 0.004635526666357845
44 -0.008559554377425036 -0.0249081360014425 0.022669691172444578
81 -0.027197559579797158 0.02133886207189672 -0.01381668214809733
82 0.0554888678606123 0.0073499283287989416 0.023678965952851298
111 0.013093278282804923 -0.027167116354450693 -0.06471302957414939
84 0.021524255094302013 0.0006794994608602042 0.05321279673495093
83 -0.0034304097459929243 -0.01214700197839866 -0.026096896376381837
119 0.013866209439509955 0.02044845068341565 0.018280859931764707
95 0.0013743145707189176 -0.04658343929866611 0.05068245545700589
90 -0.05677743681187215 0.0014060194620556586 0.03197195509591082
89 0.015066480801059884 -0.06812544500917185 0.02756115989101745
65 -0.06433675427882198 0.002756033012806775 -0.015518613943603361
64 0.03234232471961866 -0.017580510189587752 0.021542863344465646
18 -0.0466480299089968 0.01742674658804121 -0.06439042103423274
63 -0.0416651539173402 4.37660623189666e-05 -0.015768958966874688
21 0.047055543116216056 -0.01504379416801729 -0.030293655711083018
62 0.003185145766189233 -0.0032149426871932096 -0.05341538077326055
60 -0.06589969089248417 0.018527273219551152 0.0028411485207880402
61 0.03350842606180546 -0.010380440574983508 -0.013326966895062934
59 0.025745318258991956 0.0314263170264993 -0.01690320298266176
56 0.01906627482023378 -0.019637483417353226 -0.025331230244875855
58 -0.036835398444877335 -0.009284522446288246 0.0069970023649304205
55 0.002981484183499965 -0.0017528919976732757 -0.08733889966281189
57 -0.01539579768780523 0.045803590763073554 0.007060880512022416
7 -0.02336895854658776 0.04712768918567651 -0.05663988352776598
15 0.018800502123558025 0.04436124824518263 0.015239161192281
14 0.013275845183154817 -0.06843317880449463 -0.013244626218394055
4 0.02938537273845859 -0.0008666107155343714 0.05380859681717392
1 0.023974803686396293 0.04223723956118798 0.023020748621814514
11 -0.010520261389370452 0.02096808490342022 0.06290266725436826
12 0.04470495219250165 -0.01895623233765596 -0.010001099015828433
54 -0.06947594950482396 0.013047855559657737 -0.0413333420946335
53 -0.0619515143037673 0.04278125155969915 -0.042874494153626506
52 0.028801416549834466 -0.03660332028243356 -0.008780265572446728
5 -0.01486702054486399 -0.0027247125810406095 0.03334027920020471
8 0.0032318090929077765 -0.017775499836719742 -0.019922158805649636
9 -0.0403040556154495 -0.004236699006513437 -0.014153285665692066
51 -0.004829524924188526 -0.05560426525052876 0.04368733414633902
2 0.0017333853181245977 0.004799874792393608 -0.03870986683680146
6 0.022325257602869655 0.025635195364699038 -0.03632999852965654
3 -0.044537130065869686 0.05591450087354681 0.03995635258210823
50 -0.04292614465625069 0.014483542115761517 -0.04913661128520622
45 -0.028037451452643324 0.06280238558350625 0.0009958402968872865
48 0.09926662926780812 -0.0371960786123549 0.033963978139642435
49 0.008358762693721914 -0.005046831268998439 -0.06872659946151312
47 -0.010399371572424989 0.017697613063755432 -0.008547641264246553
118 0.02358881524169173 0.05751410412166693 0.012569678750232044
117 0.046579610122806724 -0.040411244089857946 -0.01857484620110678
112 0.0019094363001105202 -0.0354537743382537 -0.04412365798626365
116 0.002113561000890078 0.06264779562504791 -0.0033059130454538544
115 -0.024433665588933066 0.036615988985666065 0.036368006063285614
120 -0.004018167493776812 0.04053012546298492 -0.006301197234351572
114 -0.0020802912447597443 -0.01638182161581502 0.01835601382310898
113 0.06309781037261096 0.05524908773808628 0.003101337972553659
91 0.0111309480198475 0.005126490375112815 0.03403696746989343
94 0.01477025644287384 -0.0021177439356009392 -0.0011803848121622446
92 0.0017408215576752322 0.01890169178631606 -0.04237409917743627
88 -0.018958395083386714 -0.022736063885902685 -0.04276792706451217
85 0.05698126367187775 0.09621814191509832 -0.037010837192328484
93 0.0520202198317662 0.006728786622914172 -0.022015854428688322
86 -0.04512370338940489 0.026490482995444393 -0.006431355882407071
87 0.020511072252298174 0.0036110784772297624 0.014567578321175874

Bonds

1 3 68 69
2 3 71 72
3 2 67 68
4 1 67 70
5 3 26 27
6 3 29 30
7 3 32 33
8 2 70 71
9 1 70 73
10 3 74 75
11 2 34 35
12 1 34 37
13 2 31 32
14 1 31 34
15 2 19 20
16 1 19 22
17 3 35 36
18 3 38 39
19 2 28 29
20 1 28 31
21 2 37 38
22 1 37 40
23 2 25 26
24 1 25 28
25 2 22 23
26 1 22 25
27 3 23 24
28 3 17 18
29 3 20 21
30 3 41 42
31 4 101 102
32 4 98 99
33 4 100 101
34 4 97 98
35 4 99 100
36 4 96 97
37 2 73 74
38 1 73 76
39 4 102 103
40 4 107 108
41 4 103 104
42 2 16 17
43 1 16 19
44 4 106 107
45 2 13 14
46 1 13 16
47 2 43 44
48 1 43 46
49 4 108 109
50 2 76 77
51 1 76 79
52 4 109 110
53 3 77 78
54 2 79 80
55 1 79 82
56 4 110 111
57 2 40 41
58 3 80 81
59 2 46 47
60 1 46 49
61 4 105 106
62 2 10 11
63 1 10 13
64 4 104 105
65 3 44 45
66 2 82 83
67 4 111 112
68 3 83 84
69 4 119 120
70 4 95 96
71 4 90 91
72 4 89 90
73 3 65 66
74 2 64 65
75 1 64 67
76 3 62 63
77 2 61 62
78 1 61 64
79 3 59 60
80 3 56 57
81 2 58 59
82 1 58 61
83 2 55 56
84 1 55 58
85 2 7 8
86 1 7 10
87 3 14 15
88 2 4 5
89 1 4 7
90 2 1 2
91 1 1 4
92 3 11 12
93 3 53 54
94 2 52 53
95 1 52 55
96 3 5 6
97 3 8 9
98 3 2 3
99 3 50 51
100 2 49 50
101 1 49 52
102 3 47 48
103 4 118 119
104 4 117 118
105 4 112 113
106 4 116 117
107 4 115 116
108 4 114 115
109 4 113 114
110 4 91 92
111 4 94 95
112 4 92 93
113 4 88 89
114 4 85 86
115 4 93 94
116 4 86 87
117 4 87 88

Angles

1 2 67 68 69
2 2 70 71 72
3 1 64 67 70
4 2 25 26 27
5 2 28 29 30
6 2 31 32 33
7 1 67 70 73
8 2 73 74 75
9 1 31 34 37
10 1 28 31 34
11 1 16 19 22
12 2 34 35 36
13 2 37 38 39
14 1 25 28 31
15 1 34 37 40
16 1 22 25 28
17 1 19 22 25
18 2 22 23 24
19 2 16 17 18
20 2 19 20 21
21 2 40 41 42
22 1 70 73 76
23 1 13 16 19
24 1 10 13 16
25 1 73 76 79
26 2 76 77 78
27 1 76 79 82
28 2 79 80 81
29 1 43 46 49
30 1 7 10 13
31 2 43 44 45
32 2 82 83 84
33 2 64 65 66
34 1 61 64 67
35 2 61 62 63
36 1 58 61 64
37 2 58 59 60
38 2 55 56 57
39 1 55 58 61
40 1 52 55 58
41 1 4 7 10
42 2 13 14 15
43 1 1 4 7
44 2 10 11 12
45 2 52 53 54
46 1 49 52 55
47 2 4 5 6
48 2 7 8 9
49 2 1 2 3
50 2 49 50 51
51 1 46 49 52
52 2 46 47 48
