LAMMPS data file via write_data, version 29 Aug 2024, timestep = 4000000000, units = nano

120 atoms
14 atom types
117 bonds
4 bond types
52 angles
2 angle types

-150 150 xlo xhi
-150 150 ylo yhi
-150 150 zlo zhi

Masses

1 3534.1
2 3534.1
3 3534.1
4 3534.1
5 3534.1
6 3534.1
7 3534.1
8 3534.1
9 3534.1
10 3534.1
11 3534.1
12 3534.1
13 3534.1
14 3534.1

Bond Coeffs # harmonic

1 347.35 5.75
2 347.35 5.5
3 347.35 1.95
4 69.4692 5.5

Angle Coeffs # cosine/squared

1 138.94 180
2 555.75 180

Atoms # full

25 1 1 -1 -71.74369432336496 -22.575884807626913 121.9291299707364 0 18 -12
22 1 1 -1 -68.87168214813654 -19.585866455983275 118.00433488106047 0 18 -12
19 1 1 -1 -63.44565633475983 -18.09658915594061 116.81007573875014 0 18 -12
26 1 3 0 -68.50925044696295 -19.294258785124153 124.90498866361177 0 18 -12
29 1 4 0 -70.04201994186428 -18.84412560661145 127.72710403583422 0 18 -12
23 1 2 0 -65.95374723407704 -19.33250341137817 122.65436187119742 0 18 -12
24 1 6 0 -64.88504953172914 -19.337428998622904 124.2412796913186 0 18 -12
66 2 7 0 -63.83044762144844 -19.324028316880085 125.73102917937055 0 18 -12
62 2 2 0 -63.0692410089752 -22.12275518267782 127.18368794572211 0 18 -12
21 1 7 0 -62.57819735801352 -21.096982850697604 123.5401228873138 0 18 -12
63 2 6 0 -62.93199742496445 -21.588990612129027 125.208255471508 0 18 -12
65 2 3 0 -63.06026498317013 -18.85888369949902 127.48748128853236 0 18 -12
20 1 3 0 -62.75405622953679 -20.203516888917946 121.81012178312909 0 18 -12
59 2 3 0 -60.95382676253204 -24.28033234324601 125.7540954252714 0 18 -12
18 1 6 0 -59.83428902672803 -21.229629247476744 123.70667050483993 0 18 -12
60 2 7 0 -60.3652540345709 -22.468289315406217 124.91834572328321 0 18 -12
17 1 2 0 -59.42314200561069 -19.821508436347855 122.37707026465061 0 18 -12
14 1 5 0 -56.89770474622894 -20.004770248374047 124.6158750742548 0 18 -12
56 2 4 0 -58.12178514561813 -25.620519770476957 124.52662940950408 0 18 -12
15 1 9 0 -57.8221454030275 -21.874497300857783 124.73198748637974 0 18 -12
57 2 8 0 -57.92691875192022 -23.598195169221704 124.61057976681185 0 18 -12
11 1 3 0 -55.52765208643414 -20.455654786094893 127.6088898129842 0 18 -12
55 2 1 -1 -59.99019249263687 -30.904484937303028 124.29198611220689 0 18 -12
28 1 1 -1 -71.1050061833291 -24.339353835482964 127.59923897475389 0 18 -12
58 2 1 -1 -63.25644979188951 -28.490597105610824 128.28221230723162 0 18 -12
12 1 7 0 -55.18835762521852 -22.348965391916295 126.9387288454678 0 18 -12
54 2 6 0 -55.03495893227581 -23.739397894512486 126.04043685506531 0 18 -12
53 2 2 0 -54.85562987953545 -25.480346033803794 125.0014799131682 0 18 -12
52 2 1 -1 -54.84762580051433 -29.895798321542 121.80062069281915 0 18 -12
49 2 1 -1 -49.49656216619251 -28.403369066148322 123.38307059623371 0 18 -12
50 2 2 0 -52.566919924303164 -26.287632793178762 127.42548190224569 0 18 -12
46 2 1 -1 -46.59660107172038 -24.867816400344726 126.61210393689177 0 18 -12
51 2 6 0 -53.60262399684587 -24.763617825295874 128.17476388436222 0 18 -12
9 1 7 0 -55.042085677077104 -23.299230165946074 129.33286217847677 0 18 -12
47 2 5 0 -50.72707809103757 -26.307785063589126 130.1631394354071 0 18 -12
76 2 1 -1 -75.42202257851964 -9.139003339760539 128.70033051483537 0 18 -12
27 1 7 0 -67.12406009393315 -18.003713365460857 125.3217427906929 0 18 -12
69 2 6 0 -66.17951795132319 -16.93936785277972 126.27013765993145 0 18 -12
30 1 8 0 -68.99080330862137 -17.19930789196523 127.64580298574295 0 18 -12
16 1 1 -1 -58.698699728228775 -15.501556042093615 119.1257251633253 0 18 -12
68 2 2 0 -64.68494518980225 -15.93870179462432 127.40769998841661 0 18 -12
72 2 9 0 -68.01953749071826 -15.815865540853483 128.00408336372152 0 18 -12
13 1 1 -1 -56.043029738331334 -14.619023298450866 124.28900304798803 0 18 -12
71 2 5 0 -67.18266628687961 -13.91913762678334 127.86971145905534 0 18 -12
73 2 1 -1 -69.92358865669964 -7.722733141914427 127.39758212933748 0 18 -12
74 2 3 0 -70.31516816967729 -12.998825301229392 128.30534597029506 0 18 -12
70 2 1 -1 -64.66549895169253 -9.129816939226483 129.15310038948502 0 18 -12
10 1 1 -1 -54.95173203905083 -15.678814333235813 129.8782628329642 0 18 -12
32 1 2 0 -69.81982969495957 -18.349289026646776 131.01525545401316 0 18 -12
67 2 1 -1 -60.92551280138223 -13.43738052157234 130.46177499217208 0 18 -12
104 3 12 0 -49.20434156758628 -14.59139804274933 132.32120061169823 0 18 -12
105 3 12 0 -50.065398049959235 -11.524867619046752 128.2084939867037 0 18 -12
107 3 12 0 -54.63617752455321 -8.218888448900644 134.03529348200647 0 18 -12
106 3 11 0 -49.2742382363062 -8.502768893121713 132.58913874556825 0 18 -12
118 3 12 0 -59.601577676982245 -42.85565526453097 137.82785467320207 0 18 -12
119 3 12 0 -63.945186501076165 -42.37884552263051 141.79754990645455 0 18 -12
120 3 11 0 -65.9359654480427 -40.91686731414687 136.7412944981325 0 18 -12
115 3 10 0 -67.01354993516333 -40.51102904305947 137.04941865339362 0 18 -12
117 3 12 0 -60.776102398531535 -38.01771530338802 140.20338026717215 0 18 -12
116 3 12 0 -63.676160502813545 -35.98018328769595 135.98036806247475 0 18 -12
114 3 12 0 -69.66158712261512 -36.24886730250684 138.88228064800833 0 18 -12
113 3 12 0 -66.23163432368467 -32.349322120887685 139.82460048904431 0 18 -12
31 1 1 -1 -68.75600991552545 -23.39582379822452 132.94967453232965 0 18 -12
61 2 1 -1 -62.386822912409734 -24.38271904018893 132.2824204790299 0 18 -12
34 1 1 -1 -65.61236131688834 -20.011710422432888 136.28725449016395 0 18 -12
110 3 14 0 -62.38399191636689 -21.89686140840035 133.50911684537056 0 18 -12
1 1 1 -1 -59.528676914440574 -28.093737890712568 135.54080339885212 0 18 -12
4 1 1 -1 -58.53665726072731 -22.58742368356556 137.07574050245444 0 18 -12
111 3 12 0 -64.34375826549555 -25.6092844483183 137.34632176452232 0 18 -12
112 3 12 0 -65.4476306455265 -27.628932351742666 142.46562867929185 0 18 -12
8 1 3 0 -55.51602860356387 -21.926021501952274 130.7392652542461 0 18 -12
5 1 4 0 -54.82775000924361 -24.074547448255 133.27072534013462 0 18 -12
2 1 4 0 -54.2620835460108 -27.021853786996214 134.51788107371794 0 18 -12
43 2 1 -1 -43.82577604621005 -25.118722730485445 131.63463147607195 0 18 -12
6 1 8 0 -53.13763575427693 -24.87560872237926 132.4004113865034 0 18 -12
3 1 8 0 -52.689018786487104 -26.300961105309046 133.36584299141396 0 18 -12
48 2 9 0 -52.052323545866905 -26.088693819397918 131.73898001927228 0 18 -12
45 2 9 0 -51.421301820529024 -25.356368208590148 132.87559648171867 0 18 -12
44 2 5 0 -49.25100734683174 -25.343081938416088 132.88572009115626 0 18 -12
79 2 1 -1 -78.74196219934419 -12.223001367259384 132.39193875599685 0 18 -12
82 2 1 -1 -78.85510188683374 -13.322574987046293 138.07366862921074 0 18 -12
75 2 7 0 -69.98106685548431 -14.977562935735989 129.0817507408067 0 18 -12
33 1 6 0 -69.988755777121 -16.242866419061954 130.2728834808975 0 18 -12
77 2 3 0 -72.75427251825893 -13.580310057131745 130.30689867405113 0 18 -12
64 2 1 -1 -60.739782198586106 -18.981373199247827 132.4118431598744 0 18 -12
83 2 4 0 -73.4933057671228 -12.88685761137444 136.9078896203575 0 18 -12
80 2 4 0 -73.50307073399092 -13.23555128937526 133.56245145409864 0 18 -12
78 2 7 0 -71.08775100762954 -14.955942142428533 130.7307411035822 0 18 -12
36 1 6 0 -69.71711122287182 -15.342637607353385 131.87366053373074 0 18 -12
35 1 2 0 -68.46874014121741 -16.120129486089702 133.31543295920466 0 18 -12
40 1 1 -1 -63.70438926398733 -9.307883934486297 135.62698454484266 0 18 -12
109 3 13 0 -60.13960311423614 -17.21355184452673 133.6553461917155 0 18 -12
81 2 8 0 -71.835800242899 -12.819770815902386 134.38541745466895 0 18 -12
84 2 8 0 -71.63395495711596 -12.475234979467041 136.03550212753356 0 18 -12
41 1 5 0 -68.85625978710915 -10.511386016378736 134.5195719248022 0 18 -12
108 3 12 0 -57.37452208389412 -12.767809442677503 135.69500129054165 0 18 -12
39 1 9 0 -70.2834273870183 -13.182070481534604 135.3407981968535 0 18 -12
42 1 9 0 -70.79298926421117 -11.554309390889092 134.85637144180967 0 18 -12
38 1 5 0 -68.12598835697241 -13.59399981322881 135.59009722306678 0 18 -12
37 1 1 -1 -62.788324457072726 -15.008714902803245 135.860957163935 0 18 -12
7 1 1 -1 -55.521223963938795 -18.29832663749909 134.98865760463565 0 18 -12
103 3 10 0 -49.054632350396375 -9.26892935925824 133.14535343331332 0 18 -12
99 3 12 0 -39.18141884748233 -9.062675682714293 142.09723666698318 0 18 -12
100 3 11 0 -43.94504006328892 -6.104568403727144 142.63117009721648 0 18 -12
97 3 10 0 -44.211665834574156 -5.391585771620981 142.71632875711373 0 18 -12
101 3 12 0 -43.740441223709006 -7.555891694303046 137.32625334947423 0 18 -12
102 3 12 0 -47.6837417595927 -4.316353378080328 136.02949318549057 0 18 -12
98 3 12 0 -38.858463008005494 -3.5757745284945597 142.15816878178686 0 18 -12
96 3 12 0 -43.59613022983521 -0.15437371557594037 142.40484031774477 0 18 -12
95 3 12 0 -45.44121793302604 5.138559478260663 141.54055754848127 0 18 -12
94 3 11 0 -49.76969363469406 5.708860371248886 138.56152507074412 0 18 -12
91 3 10 0 -49.2947054578217 6.435382593608717 137.84466642851558 0 18 -12
93 3 12 0 -50.89781218402088 1.3357275038364353 134.6292350777951 0 18 -12
92 3 12 0 -51.67536305850342 6.290147694137875 132.7015088240274 0 18 -12
90 3 12 0 -51.11937849869617 11.382208080409276 136.53509096336228 0 18 -12
89 3 12 0 -46.453439777400476 14.388152368654982 137.36988851518933 0 18 -12
88 3 11 0 -49.829615814951346 16.364625244764703 141.55564397432641 0 18 -12
85 3 10 0 -49.27187539821361 16.4503818298142 141.90009671361454 0 18 -12
87 3 12 0 -54.12891735113543 18.72195845988465 144.27811901164495 0 18 -12
86 3 12 0 -49.03526614585183 21.348691461384142 143.92976538673295 0 18 -12

Velocities

25 -0.00993610834393241 0.037949513751863076 -0.05098349776132133
22 -0.04468895336370373 -0.012376133633495037 0.004819214338737607
19 -0.0158021373047253 -0.018590446246910322 -0.004588496824712766
26 -0.033397261968239715 0.028249743775346888 -0.07802592176749693
29 -0.0027054649785328445 -0.050185462263953165 -0.05270174814131865
23 -0.03152307564306095 -0.026275127739135012 -0.05024076040337697
24 0.0067609495464429304 0.020448683629676133 0.032062849726819734
66 -0.062179540308132476 0.07946116147511556 -0.03358667089892173
62 0.06478695092598398 -0.044048439978841766 -0.011028018669037676
21 -0.02440811565190786 0.0245663896870441 -0.0018527325150863188
63 0.040964290973163994 0.03235854071764071 0.024420030257050526
65 -0.02413426275893401 -0.01391221469696094 -0.04298436012784005
20 -0.004396951484172625 0.022817393537939656 0.016686173523212385
59 0.05586317922910905 -0.03294179539006558 0.005407704607337768
18 -0.03740761390063215 -0.059788219714614774 0.040800922081520384
60 0.06332233209158969 0.020121690729582815 0.04168722846685741
17 -0.01445882370929121 0.05862934515686395 -0.03391274282493432
14 0.0499702971689145 0.02262159762431849 -0.010810303524926816
56 -0.03344690128519855 -0.001480860782684344 -0.0014522978261461007
15 0.027052805022449503 -0.045816636751364305 -0.03940327091103604
57 -0.0032078505061594017 -0.03909381172630703 0.026845741728789632
11 0.01240892504297375 0.010268854799533593 0.01065267693273093
55 -0.012158245099517347 -0.014146386762414738 -0.02579593550891127
28 0.03135326500219814 -0.00446036286057773 -0.038838826493670674
58 -0.07442557337783835 0.009476555237623826 -0.020291895259276993
12 -0.009185487467449802 0.04578165758169346 0.0028412742125003437
54 0.06561889280362536 0.032640637244748825 -0.004571390126730099
53 -0.044180522902382446 -0.038845655254107506 0.02207658121791426
52 0.02720090427849557 0.010763922953143596 -0.02171834994691232
49 0.02331298158523435 0.00952188203141194 -0.016640305043639555
50 -0.014406083326302901 0.0047244142662291365 -0.02612353748403655
46 0.03637380612529067 -0.01771304945353704 -0.027693039584506075
51 0.020196219409595744 -0.000697771029175299 -0.0020995791941289853
9 0.024061350094008296 0.06620093033546695 0.006160528349175356
47 -0.03006069594161039 0.01652390285111767 -0.05148229896792268
76 -0.06628962725325899 0.0425769435129872 0.07183653486189184
27 -0.04624311739537064 0.025431477085618073 0.001433272000358175
69 0.023964831800339 -0.01902414346206936 0.031089092370175625
30 0.0590116959128856 0.0031963045308675076 -0.015667635309975343
16 -0.005905197160413397 -0.01612639698438043 0.016617331097565177
68 -0.06206600930539727 0.01824987961630123 0.06852974719885224
72 0.02241809089808381 0.032153004028508125 -0.017096910831793165
13 0.024164769305460593 0.0015414663717085275 0.017175635039329163
71 0.05883116485267339 -0.01408245873412493 -0.012591396838225072
73 0.054597788105628715 -0.01446661295155122 -0.0036215886093786337
74 -0.02166610823415878 -0.03939863143705876 -0.015956612481407374
70 -0.02722574688381987 0.012993798782275112 0.031713662934610476
10 0.019793536771972518 0.0007043061203355144 -0.017012626677466412
32 0.005687023963236176 -0.037258131124905156 0.06182387130503139
67 -0.0830186141030633 0.04890190646453675 -0.011506515225532343
104 -0.036572053917563456 0.05081504666779745 0.012117739494079315
105 0.047460048339762216 -0.019082169267045725 -0.02895421947945657
107 -0.05009065104594492 0.017553741956553903 0.039020697643155335
106 0.037867118224657735 -0.04366753008420849 0.041034711131044344
118 0.018836423894802123 -0.028565625256886575 -0.0014487271049796618
119 0.03734531310963354 -0.0195066526296619 0.026309239381954837
120 -0.052017309324436406 -0.06480028504520217 -0.02206418870391882
115 0.009551461600424983 0.015557413904967336 -0.05685075755871116
117 -0.05901996369493878 -0.004038821571675061 -0.011517222834742859
116 0.010554494505915186 0.05716379285514209 0.014809942675209518
114 0.028405886886626045 -0.006406346732778838 0.005520906011839786
113 0.00819895008176899 0.02076150752085387 0.021372787538335658
31 -0.05762874111443779 0.019068771448895648 0.009412175132281375
61 0.034804531817033565 0.023831796495394263 0.02125543387846906
34 0.007137675461580946 0.026678532505754776 0.006948960124430091
110 -0.016808412920292445 -0.03685440935750187 -0.01605692434057122
1 0.03515677001820059 -0.06356704118010419 -0.04468040964853329
4 -0.062273955789788324 0.030734519642193536 -0.01775599293183986
111 0.04827201757944851 -0.02069336378342921 0.0289716227588824
112 -0.019018232484270665 -0.037348798484003895 0.0057871642407620475
8 -0.03528065194821412 -0.03400325302653491 -0.00459110026845701
5 0.008745917935902025 -0.01789158392052349 -0.012464310485035645
2 0.011717533993817286 0.011481389940539197 0.058450773606716966
43 0.004715794249516759 0.008094995336694003 -0.010405717445706184
6 0.003351590131500719 -0.061889242303332336 0.001244234022475604
3 0.028687505034443377 0.00460086000122803 -0.059484758854384236
48 0.010421549506819646 -0.0034129142343029984 -0.01980311793341308
45 0.05632879260106247 -0.012079102546125714 -0.03014945332291635
44 -0.03276581859741429 -0.013906206906298272 -0.02840217431569804
79 0.003906923272001083 0.015330203123753189 0.038687196001186835
82 -0.030464935852595063 0.02506215383150066 -0.04618782776222411
75 0.02468957200387352 -0.0023227904974674383 -0.02930176681729799
33 0.015799983255207765 0.006196068057145433 0.011363091522453031
77 0.006459735942883812 -0.015733258010047855 0.024750015055671877
64 -0.03568331079176327 0.0037936693144218474 -0.03752525845559169
83 0.039255595712485554 0.035569200448750164 0.01336259673160124
80 0.010697610576585397 0.03454307304059503 -0.014523666861430364
78 0.03532764403583468 -0.09066603755452891 -0.0277518770834605
36 0.034122748652702824 -0.0006033997687557079 -0.04320962478809174
35 0.04673295009960701 0.017576987884816837 -0.012735467289399767
40 0.026745364707765788 0.07628911818558995 0.030019664853520887
109 0.006579681359862197 -0.012846128095725549 -0.02450846324549028
81 0.02106782526333819 -0.030666198343347054 -0.09459540460081191
84 0.03303798686282754 0.03320124490850867 -0.0032098666156896594
41 0.04373074409938241 -0.02665996584803906 -0.01671783442142846
108 0.020685039640395024 -0.06485581079204095 -0.06008525877289684
39 -0.010991532205753584 -0.013364872244540981 -0.060635544942500175
42 -0.02723686834915764 -0.031157412620811266 0.003319778314914335
38 0.011592057378795146 0.018642757761896233 -0.0023853786085560164
37 -0.012062572442583474 0.002915020520887052 -0.0414611786832529
7 -0.03576628915065842 0.03586808018494691 0.0863657764450872
103 -0.0006870374535405071 -0.009394882477612498 -0.023515275285249222
99 -0.017300106653118544 0.011195295044058072 -0.010677403422427035
100 -0.019972467993518716 -0.02987068335508178 0.02630699810395081
97 -0.024753236889442583 -0.028742680913464932 -0.005786326761846699
101 0.018525902985049265 0.007517287647712108 -0.04016068779215917
102 0.05573319262236221 0.060762666879944145 0.019387603697121315
98 -0.06628067340974747 0.0021238381411793905 0.017658558757984687
96 0.015726653423932146 0.004415125855297532 0.04562915302814408
95 0.019349737958039372 0.022384837957917843 0.016598034898048376
94 -0.009293110973008122 -0.0022240362539877067 -0.011924189600736266
91 -0.001780602509425501 0.09194569037700107 0.0053567366043091105
93 -0.017169672563577817 0.0035239249182596145 -0.029090730195700295
92 0.01989908688137453 0.018425053748176653 0.03488898236903016
90 0.02469520870216922 -0.014817444612942888 -0.007088253399655069
89 0.015346014363803886 -0.03863904803047627 0.009639770433399576
88 0.05880861430258483 -0.007736934319417853 -0.021297090251445834
85 -0.017692506628243284 0.001799307535166271 0.005111026589724667
87 -0.03390350011676014 -0.010960665096501794 -0.06146350415100313
86 -0.040563001819950685 -0.022228777709821713 -0.004501898591329964

Bonds

1 2 25 26
2 1 25 28
3 2 22 23
4 1 22 25
5 2 19 20
6 1 19 22
7 3 26 27
8 3 29 30
9 3 23 24
10 3 62 63
11 3 65 66
12 3 20 21
13 3 59 60
14 3 17 18
15 3 14 15
16 3 56 57
17 3 11 12
18 2 55 56
19 1 55 58
20 2 28 29
21 1 28 31
22 2 58 59
23 1 58 61
24 3 53 54
25 2 52 53
26 1 52 55
27 2 49 50
28 1 49 52
29 3 50 51
30 2 46 47
31 1 46 49
32 3 47 48
33 2 76 77
34 1 76 79
35 2 16 17
36 1 16 19
37 3 68 69
38 2 13 14
39 1 13 16
40 3 71 72
41 2 73 74
42 1 73 76
43 3 74 75
44 2 70 71
45 1 70 73
46 2 10 11
47 1 10 13
48 3 32 33
49 2 67 68
50 1 67 70
51 4 104 105
52 4 105 106
53 4 107 108
54 4 106 107
55 4 118 119
56 4 119 120
57 4 115 116
58 4 117 118
59 4 116 117
60 4 114 115
61 4 113 114
62 2 31 32
63 1 31 34
64 2 61 62
65 1 61 64
66 2 34 35
67 1 34 37
68 4 110 111
69 2 1 2
70 1 1 4
71 2 4 5
72 1 4 7
73 4 111 112
74 4 112 113
75 3 8 9
76 3 5 6
77 3 2 3
78 2 43 44
79 1 43 46
80 3 44 45
81 2 79 80
82 1 79 82
83 2 82 83
84 3 77 78
85 2 64 65
86 1 64 67
87 3 83 84
88 3 80 81
89 3 35 36
90 2 40 41
91 4 109 110
92 3 41 42
93 4 108 109
94 3 38 39
95 2 37 38
96 1 37 40
97 2 7 8
98 1 7 10
99 4 103 104
100 4 99 100
101 4 100 101
102 4 97 98
103 4 101 102
104 4 102 103
105 4 98 99
106 4 96 97
107 4 95 96
108 4 94 95
109 4 91 92
110 4 93 94
111 4 92 93
112 4 90 91
113 4 89 90
114 4 88 89
115 4 85 86
116 4 87 88
117 4 86 87

Angles

1 1 22 25 28
2 1 19 22 25
3 1 16 19 22
4 2 25 26 27
5 2 28 29 30
6 2 22 23 24
7 2 61 62 63
8 2 64 65 66
9 2 19 20 21
10 2 58 59 60
11 2 16 17 18
12 2 13 14 15
13 2 55 56 57
14 2 10 11 12
15 1 52 55 58
16 1 25 28 31
17 1 55 58 61
18 2 52 53 54
19 1 49 52 55
20 1 46 49 52
21 2 49 50 51
22 1 43 46 49
23 2 46 47 48
24 1 73 76 79
25 1 13 16 19
26 2 67 68 69
27 1 10 13 16
28 2 70 71 72
29 1 70 73 76
30 2 73 74 75
31 1 67 70 73
32 1 7 10 13
33 2 31 32 33
34 1 64 67 70
35 1 28 31 34
36 1 58 61 64
37 1 31 34 37
38 1 1 4 7
39 2 7 8 9
40 2 4 5 6
41 2 1 2 3
42 2 43 44 45
43 1 76 79 82
44 2 76 77 78
45 1 61 64 67
46 2 82 83 84
47 2 79 80 81
48 2 34 35 36
49 2 40 41 42
50 2 37 38 39
51 1 34 37 40
52 1 4 7 10
